NAME : LPS-n4-m140
COMMENT : (Lartu-Peter-Santi Plot, instance 540 out of 39200. 4 customers.)
TYPE : CVRP
DIMENSION : 4
EDGE_WEIGHT_TYPE : EUC_2D
CAPACITY : 129
NODE_COORD_SECTION
 1 19 24
 2 62 29
 3 89 84
 4 47 51
DEMAND_SECTION
1 0
2 93
3 66
4 61
DEPOT_SECTION
 1
 -1
EOF
